branch-and-cut/resultados/I080/i080-034.sol
1688
10
1 12
55 2
12 55
12 16
6 69
1 59
3 16
59 5
16 69
59 4
